
List of user-set options:

                                    Name   Value                used
                           compl_inf_tol = 1                     yes
                         constr_viol_tol = 1                     yes
                            dual_inf_tol = 1000                  yes
                           linear_solver = ma97                  yes
                              ma86_small = 1e-30                  no
                                  ma86_u = 0.0001                 no
                              ma97_order = best                  yes
                              ma97_small = 1e-30                 yes
                            ma97_switch1 = at_start              yes
                            ma97_switch2 = od_hd_reuse           yes
                                  ma97_u = 1e-06                 yes
                               ma97_umax = 0.5                   yes
                                max_iter = 1000                  yes
                    max_refinement_steps = 20                    yes
                    min_refinement_steps = 5                     yes
                                 mu_init = 1e-06                 yes
           mu_superlinear_decrease_power = 1.25                  yes
                   nlp_scaling_min_value = 1e-08                 yes
                        option_file_name = Preset_Case_948_pf.opt  yes
                             output_file = ./tmp/Preset_Case_948_pf.output  yes
                      print_user_options = yes                   yes
        required_infeasibility_reduction = 1                      no
                                     tol = 1e-08                 yes
                   warm_start_bound_frac = 1e-20                 yes
                   warm_start_bound_push = 1e-20                 yes
                   warm_start_init_point = yes                   yes
              warm_start_mult_bound_push = 1e-20                 yes
                warm_start_mult_init_max = 1e+40                 yes
             warm_start_slack_bound_frac = 1e-20                 yes
             warm_start_slack_bound_push = 1e-20                 yes

******************************************************************************
This program contains Ipopt, a library for large-scale nonlinear optimization.
 Ipopt is released as open source code under the Eclipse Public License (EPL).
         For more information visit http://projects.coin-or.org/Ipopt
******************************************************************************

This is Ipopt version 3.12.10, running with linear solver ma97.

Number of nonzeros in equality constraint Jacobian...:   123442
Number of nonzeros in inequality constraint Jacobian.:      213
Number of nonzeros in Lagrangian Hessian.............:    49069

Total number of variables............................:    31591
                     variables with only lower bounds:    12912
                variables with lower and upper bounds:    15130
                     variables with only upper bounds:        0
Total number of equality constraints.................:    31483
Total number of inequality constraints...............:       25
        inequality constraints with only lower bounds:        4
   inequality constraints with lower and upper bounds:        0
        inequality constraints with only upper bounds:       21

iter    objective    inf_pr   inf_du lg(mu)  ||d||  lg(rg) alpha_du alpha_pr  ls
   0 -5.2363741e+00 4.05e-03 1.02e+00  -6.0 0.00e+00    -  0.00e+00 0.00e+00   0
   1 -5.2446063e+00 5.53e+00 2.64e+01  -6.0 4.04e+05    -  7.82e-05 8.97e-04h  1
   2 -5.2449840e+00 5.53e+00 5.69e+01  -6.0 4.64e+03    -  1.70e-01 8.33e-04f  1
   3 -5.2450943e+00 5.53e+00 6.69e+02  -6.0 3.75e+03    -  8.15e-03 3.96e-04h  1
   4 -5.2377122e+00 5.51e+00 1.60e+02  -6.0 1.14e+04    -  2.44e-03 2.79e-03h  6
   5 -5.5188758e+00 3.60e+01 1.24e+05  -6.0 1.47e+04    -  4.57e-03 1.38e-01f  1
   6 -5.5188773e+00 3.60e+01 1.49e+05  -6.0 1.48e+02  -4.0 3.21e-02 4.74e-06h  2
   7 -5.5187964e+00 3.60e+01 1.24e+05  -6.0 4.04e+02  -4.5 2.40e-03 1.65e-04h  1
   8 -5.5186189e+00 3.59e+01 1.26e+05  -6.0 2.97e+02  -4.1 8.51e-03 1.75e-03h  1
   9 -5.5170909e+00 3.55e+01 1.23e+05  -6.0 3.02e+02  -4.5 1.87e-03 1.34e-02h  1
iter    objective    inf_pr   inf_du lg(mu)  ||d||  lg(rg) alpha_du alpha_pr  ls
  10 -5.5164400e+00 3.45e+01 1.20e+05  -6.0 2.80e+02  -5.0 3.17e-02 2.82e-02h  1
  11 -5.4905081e+00 2.80e+01 9.79e+04  -6.0 2.97e+02  -5.5 1.09e-01 1.86e-01h  1
  12 -5.4942579e+00 2.72e+01 9.34e+04  -6.0 2.02e+02  -6.0 1.79e-01 3.05e-02h  1
  13 -5.5895773e+00 2.83e+00 1.57e+04  -6.0 1.96e+02  -6.4 9.45e-02 9.35e-01h  1
  14 -5.6714804e+00 7.65e+00 1.31e+04  -6.0 4.02e+03    -  9.89e-02 2.22e-01h  1
  15 -5.6976210e+00 4.18e+00 9.61e+04  -6.0 5.37e+01  -4.2 3.72e-03 4.54e-01h  1
  16 -5.7712658e+00 4.20e+00 4.98e+04  -6.0 9.80e+02    -  5.65e-01 4.82e-01h  1
  17 -5.8283647e+00 2.95e+00 3.90e+02  -6.0 4.10e+02    -  3.09e-01 1.00e+00h  1
  18 -5.8277439e+00 2.92e+00 3.87e+02  -6.0 8.69e+02  -4.7 1.57e-03 7.95e-03h  1
  19 -5.8190862e+00 1.83e+00 2.41e+02  -6.0 9.92e+00  -5.2 3.31e-01 3.75e-01h  1
iter    objective    inf_pr   inf_du lg(mu)  ||d||  lg(rg) alpha_du alpha_pr  ls
  20 -5.8197981e+00 1.89e+00 2.87e+02  -6.0 1.12e+03    -  1.14e-01 1.56e-01h  2
  21 -5.8160796e+00 1.44e+00 3.69e+02  -6.0 4.15e+00  -4.7 4.77e-01 2.38e-01h  1
  22 -5.8040174e+00 3.15e-02 1.52e+03  -6.0 1.04e+01  -5.2 7.20e-01 1.00e+00h  1
  23 -5.8050292e+00 7.40e-02 9.17e+03  -6.0 2.50e+01  -5.7 4.52e-01 1.51e-01h  1
  24 -5.8068189e+00 1.25e-01 3.78e+04  -6.0 5.82e+01  -6.2 1.00e+00 1.59e-01h  1
  25 -5.8159256e+00 2.17e-01 4.07e+04  -6.0 1.46e+03    -  1.73e-01 7.56e-02h  1
  26 -5.8231263e+00 6.98e-01 3.23e+04  -6.0 9.32e+02    -  3.42e-01 2.78e-01h  1
  27 -5.8298913e+00 4.17e-01 4.31e+04  -6.0 7.53e+01  -6.6 1.00e+00 4.03e-01h  1
  28 -5.8456717e+00 2.48e-01 3.65e+04  -6.0 7.26e+01  -7.1 5.81e-01 1.00e+00h  1
  29 -5.8508105e+00 5.25e-01 1.29e+04  -6.0 2.00e+02  -7.6 3.06e-01 2.34e-01h  1
iter    objective    inf_pr   inf_du lg(mu)  ||d||  lg(rg) alpha_du alpha_pr  ls
  30 -5.8549626e+00 5.02e-01 5.03e+05  -6.0 9.29e+01  -7.2 7.50e-01 1.81e-01h  1
  31r-5.8549626e+00 5.02e-01 1.00e+03  -0.8 0.00e+00  -7.6 0.00e+00 2.12e-07R  2
  32r-5.8563666e+00 4.99e-01 1.00e+03  -0.8 1.04e+04    -  1.56e-05 6.71e-06f  1
  33 -5.8559865e+00 4.50e-01 1.66e+05  -6.0 3.55e+00    -  2.00e-01 9.73e-02h  1
  34 -5.8543792e+00 2.41e-01 1.31e+06  -6.0 3.24e+00    -  9.73e-02 4.64e-01h  1
  35 -5.8529472e+00 2.27e-02 1.23e+05  -6.0 1.80e+00    -  7.66e-01 9.06e-01h  1
  36 -5.8532566e+00 1.28e-02 6.94e+04  -6.0 7.69e-01    -  9.04e-01 4.38e-01f  1
  37 -5.8572981e+00 4.29e-03 6.18e+00  -6.0 7.53e+00    -  9.09e-01 1.00e+00f  1
  38 -5.8681984e+00 1.49e-01 4.93e+01  -6.0 7.96e+01    -  6.13e-01 7.61e-01h  1
  39 -5.8687562e+00 6.61e-02 3.61e+01  -6.0 7.53e+01    -  6.64e-01 6.02e-01h  1
iter    objective    inf_pr   inf_du lg(mu)  ||d||  lg(rg) alpha_du alpha_pr  ls
  40 -5.8766528e+00 5.82e-01 3.48e+01  -6.0 1.84e+02    -  8.37e-01 7.25e-01h  1
  41 -5.8783675e+00 2.61e+00 3.62e+01  -6.0 1.07e+03  -8.1 2.94e-01 9.73e-02h  1
  42 -5.8872414e+00 2.23e+00 3.73e+01  -6.0 6.38e+02    -  8.85e-01 5.50e-01h  1
  43 -5.8960249e+00 3.00e+00 8.93e+01  -6.0 7.30e+02    -  3.60e-01 5.04e-01h  1
  44 -5.8965000e+00 2.85e+00 9.64e+02  -6.0 2.11e+03  -8.6 3.79e-01 4.77e-02h  1
  45 -5.9007555e+00 2.04e+00 8.57e+02  -6.0 4.38e+02    -  5.48e-01 3.92e-01h  1
  46 -5.9115631e+00 2.98e+00 4.85e+03  -6.0 3.98e+02    -  8.87e-02 1.00e+00h  1
  47 -5.9123565e+00 2.76e+00 1.35e+04  -6.0 2.27e+02    -  5.96e-01 7.25e-02h  1
  48 -5.9234627e+00 2.33e+00 1.22e+04  -6.0 2.20e+02    -  3.66e-01 1.00e+00h  1
  49 -5.9270598e+00 1.80e+00 3.12e+04  -6.0 2.08e+02    -  5.48e-01 2.24e-01h  1
iter    objective    inf_pr   inf_du lg(mu)  ||d||  lg(rg) alpha_du alpha_pr  ls
  50 -5.9385355e+00 9.78e-01 3.56e+04  -6.0 2.09e+02    -  9.88e-01 7.50e-01h  1
  51 -5.9543440e+00 1.32e+00 2.89e+05  -6.0 2.17e+02    -  4.33e-01 1.00e+00h  1
  52 -5.9544057e+00 1.32e+00 2.96e+05  -6.0 7.52e+02  -7.3 1.63e-01 1.42e-03h  1
  53 -5.9572807e+00 1.21e+00 1.64e+06  -6.0 3.61e+02    -  8.69e-01 1.31e-01f  1
  54 -5.9573758e+00 1.20e+00 2.47e+06  -6.0 1.24e+04    -  2.27e-03 3.43e-03h  1
  55 -5.9633680e+00 7.74e-01 8.31e+05  -6.0 1.75e+02    -  5.52e-01 6.61e-01h  1
  56 -5.9634291e+00 7.49e-01 8.03e+05  -6.0 9.31e+02    -  2.77e-02 3.29e-02h  1
  57 -5.9639651e+00 6.63e-01 6.89e+05  -6.0 1.84e+02    -  4.67e-02 1.44e-01h  1
  58 -5.9618426e+00 6.01e-01 2.33e+05  -6.0 1.78e+02    -  4.84e-01 6.68e-01h  1
  59 -5.9650962e+00 8.24e-01 4.77e+04  -6.0 2.76e+02    -  7.40e-01 7.94e-01h  1
iter    objective    inf_pr   inf_du lg(mu)  ||d||  lg(rg) alpha_du alpha_pr  ls
  60 -5.9656867e+00 7.84e-01 2.03e+05  -6.0 4.64e+02    -  7.50e-01 1.62e-01h  1
  61 -5.9644167e+00 7.61e-01 1.87e+05  -6.0 5.28e+02    -  1.57e-01 1.30e-01h  2
  62 -5.9654656e+00 8.07e-01 3.76e+05  -6.0 7.66e+02    -  3.47e-01 1.18e-01h  1
  63r-5.9654656e+00 8.07e-01 1.00e+03  -0.3 0.00e+00    -  0.00e+00 2.29e-07R  2
  64r-5.9726964e+00 8.05e-01 1.44e+03  -0.3 7.70e+03    -  1.52e-05 2.86e-06f  1
  65 -5.9719444e+00 7.37e-01 1.29e+05  -6.0 1.60e+00    -  1.65e-01 8.47e-02h  1
  66 -5.9683800e+00 4.17e-01 1.17e+06  -6.0 1.49e+00    -  8.47e-02 4.35e-01h  1
  67 -5.9649958e+00 1.18e-01 3.32e+05  -6.0 8.62e-01    -  8.18e-01 7.17e-01h  1
  68 -5.9639119e+00 8.81e-05 7.13e+00  -6.0 4.39e-01    -  9.12e-01 1.00e+00h  1
  69 -5.9658017e+00 5.41e-03 7.51e+00  -6.0 1.90e+00    -  6.55e-01 1.00e+00h  1
iter    objective    inf_pr   inf_du lg(mu)  ||d||  lg(rg) alpha_du alpha_pr  ls
  70 -5.9662438e+00 2.35e-03 1.92e+00  -6.0 5.76e+00    -  9.04e-01 1.00e+00h  1
  71 -5.9666626e+00 5.29e-03 3.21e+00  -6.0 3.49e+01    -  4.65e-01 5.08e-01h  1
  72 -5.9673742e+00 5.64e-02 4.11e+00  -6.0 5.81e+01    -  9.79e-01 1.00e+00f  1
  73 -5.9683201e+00 2.61e-03 8.26e+00  -6.0 1.83e+00  -4.1 7.21e-01 1.00e+00h  1
  74 -5.9686249e+00 2.64e-03 1.05e+03  -6.0 1.95e+01  -4.6 7.83e-02 1.63e-02h  1
  75 -5.9699470e+00 3.20e-01 1.02e+04  -6.0 8.07e+02    -  9.10e-01 1.66e-01h  2
  76 -5.9708523e+00 4.31e-01 1.28e+04  -6.0 7.23e+02    -  6.45e-01 1.28e-01h  3
  77 -5.9714975e+00 4.60e-01 1.90e+04  -6.0 6.44e+02    -  9.77e-01 9.88e-02h  4
  78 -5.9792581e+00 1.04e+00 7.25e+03  -6.0 5.91e+02    -  3.82e-01 1.00e+00H  1
  79 -5.9873259e+00 1.25e-01 1.53e+03  -6.0 2.22e+02    -  1.00e+00 1.00e+00h  1
iter    objective    inf_pr   inf_du lg(mu)  ||d||  lg(rg) alpha_du alpha_pr  ls
  80 -5.9904564e+00 1.08e-01 2.82e+04  -6.0 3.00e+02    -  3.14e-01 2.60e-01h  1
  81 -5.9961100e+00 1.10e-01 5.82e+05  -6.0 3.72e+02    -  1.00e+00 3.87e-01h  1
  82r-5.9961100e+00 1.10e-01 1.00e+03  -1.1 0.00e+00    -  0.00e+00 2.13e-07R  2
  83r-5.9943058e+00 1.08e-01 1.00e+03  -1.1 5.51e+03    -  2.85e-05 1.43e-05f  1
  84 -5.9945060e+00 9.36e-02 4.27e+05  -6.0 3.92e-01    -  3.97e-01 1.32e-01h  1
  85 -5.9954276e+00 3.79e-02 2.41e+06  -6.0 5.32e-01    -  1.32e-01 5.95e-01h  1
  86 -5.9963575e+00 4.18e-05 1.47e+01  -6.0 4.74e-01    -  9.15e-01 1.00e+00h  1
  87 -5.9997459e+00 2.04e-03 9.45e+00  -6.0 2.00e+00    -  8.01e-01 1.00e+00h  1
  88 -6.0008610e+00 2.01e-03 8.76e-01  -6.0 3.95e+00    -  9.37e-01 1.00e+00h  1
  89 -6.0002651e+00 4.58e-05 7.70e+02  -6.0 1.51e+01    -  9.83e-01 1.00e+00H  1
iter    objective    inf_pr   inf_du lg(mu)  ||d||  lg(rg) alpha_du alpha_pr  ls
  90 -6.0010073e+00 1.01e-01 1.51e+01  -6.0 1.59e+02    -  9.63e-01 1.00e+00h  1
  91 -6.0008285e+00 1.49e-02 3.72e+00  -6.0 6.98e+01    -  9.97e-01 1.00e+00h  1
  92 -6.0007877e+00 1.74e-05 4.89e-03  -6.0 1.83e+00    -  1.00e+00 1.00e+00h  1
  93 -6.0007878e+00 2.87e-10 2.22e-08  -6.0 4.34e-03    -  1.00e+00 1.00e+00h  1
  94 -6.0008575e+00 1.21e-02 4.65e+01  -7.5 3.31e+01    -  9.55e-01 7.95e-01h  1
  95 -6.0008615e+00 2.34e-03 8.21e+00  -7.5 7.14e+00    -  1.00e+00 8.62e-01h  1
  96 -6.0008614e+00 1.62e-05 5.35e-03  -7.5 9.59e-01    -  1.00e+00 1.00e+00h  1
  97 -6.0008614e+00 2.85e-10 3.67e-10  -7.5 4.95e-04    -  1.00e+00 1.00e+00h  1
  98 -6.0008630e+00 1.43e-05 7.13e-01  -9.0 1.07e+00    -  9.23e-01 8.45e-01h  1
  99 -6.0008633e+00 4.82e-07 4.65e-01  -9.0 1.66e-01    -  8.86e-01 1.00e+00f  1
iter    objective    inf_pr   inf_du lg(mu)  ||d||  lg(rg) alpha_du alpha_pr  ls
 100 -6.0008633e+00 2.84e-10 1.74e-08  -9.0 3.61e-05    -  1.00e+00 1.00e+00h  1
 101 -6.0008633e+00 4.26e-10 2.75e-10  -9.0 5.86e-06    -  1.00e+00 1.00e+00h  1

Number of Iterations....: 101

                                   (scaled)                 (unscaled)
Objective...............:  -4.6881744742240796e+00   -6.0008633270068223e+00
Dual infeasibility......:   2.7525630000026614e-10    3.5232806400034068e-10
Constraint violation....:   4.2639182440927514e-10    4.2639182440927514e-10
Complementarity.........:   9.1363528785279637e-10    1.1694531684515793e-09
Overall NLP error.......:   9.1363528785279637e-10    1.1694531684515793e-09


Number of objective function evaluations             = 138
Number of objective gradient evaluations             = 102
Number of equality constraint evaluations            = 138
Number of inequality constraint evaluations          = 138
Number of equality constraint Jacobian evaluations   = 105
Number of inequality constraint Jacobian evaluations = 105
Number of Lagrangian Hessian evaluations             = 101
Total CPU secs in IPOPT (w/o function evaluations)   =    221.449
Total CPU secs in NLP function evaluations           =      4.181

EXIT: Optimal Solution Found.
